c Sudoku solution
p cnf 729 0
119 0
146 0
185 0
192 0
231 0
318 0
336 0
355 0
362 0
394 0
417 0
432 0
563 0
649 0
667 0
684 0
739 0
774 0
781 0
844 0
858 0
912 0
222 0
215 0
514 0
959 0
269 0
254 0
464 0
168 0
965 0
766 0
861 0
713 0
943 0
816 0
921 0
934 0
728 0
795 0
611 0
124 0
247 0
341 0
153 0
171 0
137 0
323 0
633 0
538 0
448 0
545 0
827 0
835 0
742 0
757 0
998 0
288 0
678 0
475 0
696 0
625 0
652 0
986 0
977 0
276 0
293 0
873 0
882 0
899 0
572 0
379 0
387 0
483 0
589 0
597 0
491 0
456 0
551 0
429 0
526 0
